32 4
14 10 11 14
0 0 0 0 0 3 2 3 4
2 0 0 2 0 1 10
10 0 8 0 0 3 5 9 15
7 0 0 7 0 2 7 13
1 8 0 0 0 2 6 17
3 0 0 0 8 3 13 16 18
6 0 0 5 0 3 8 11 19
2 0 9 0 0 1 27
10 0 0 0 2 2 14 28
5 1 0 0 0 2 12 22
9 2 0 0 0 2 21 26
4 0 0 6 0 1 24
4 0 5 0 0 1 25
2 0 0 10 0 1 25
4 0 0 0 10 1 21
10 10 0 0 0 2 20 26
10 0 0 7 0 3 21 26 29
7 5 0 0 0 1 23
10 0 0 0 7 1 25
7 0 0 3 0 1 31
2 0 7 0 0 1 31
1 10 0 0 0 2 27 29
2 8 0 0 0 1 31
2 0 0 0 8 1 29
2 0 0 0 7 1 30
9 7 0 0 0 1 27
1 0 0 0 1 1 30
4 8 0 0 0 1 30
7 0 3 0 0 1 32
8 0 0 8 0 1 32
9 0 6 0 0 1 32
0 0 0 0 0 0
